
-4.82
-4.7
-4.58
-4.52
-4.46
-4.3
-4.22
-4.04
-3.82
-3.64
-3.34
-3.08
-2.7
-2.3
-2.0
-1.48
-1.12
-0.96
-0.92
-0.86
-0.86
-0.86
-0.84
-0.84
-0.84
-0.82
-0.82
-0.82
-0.82
-0.82
-0.8
-0.8
-0.8
-0.8
-0.8
-0.8
-0.8
-0.8
-0.8
-0.8
-0.8
-0.8
-0.8
-0.8
-0.8
-0.8